(set-info :smt-lib-version 2.6)
(set-logic QF_UFLRA)
(set-info :source |
MathSat group

|)
(set-info :category "random")
(set-info :status sat)
(declare-fun x0 () Real)
(declare-fun x1 () Real)
(declare-fun x2 () Real)
(declare-fun x3 () Real)
(declare-fun x4 () Real)
(declare-fun x5 () Real)
(declare-fun x6 () Real)
(declare-fun x7 () Real)
(declare-fun x8 () Real)
(declare-fun x9 () Real)
(declare-fun x10 () Real)
(declare-fun x11 () Real)
(declare-fun x12 () Real)
(declare-fun x13 () Real)
(declare-fun x14 () Real)
(declare-fun x15 () Real)
(declare-fun x16 () Real)
(declare-fun x17 () Real)
(declare-fun x18 () Real)
(declare-fun x19 () Real)
(declare-fun x20 () Real)
(declare-fun x21 () Real)
(declare-fun x22 () Real)
(declare-fun x23 () Real)
(declare-fun x24 () Real)
(declare-fun x25 () Real)
(declare-fun x26 () Real)
(declare-fun x27 () Real)
(declare-fun x28 () Real)
(declare-fun x29 () Real)
(declare-fun x30 () Real)
(declare-fun x31 () Real)
(declare-fun x32 () Real)
(declare-fun x33 () Real)
(declare-fun x34 () Real)
(declare-fun x35 () Real)
(declare-fun x36 () Real)
(declare-fun x37 () Real)
(declare-fun x38 () Real)
(declare-fun x39 () Real)
(declare-fun x40 () Real)
(declare-fun x41 () Real)
(declare-fun x42 () Real)
(declare-fun x43 () Real)
(declare-fun x44 () Real)
(declare-fun x45 () Real)
(declare-fun x46 () Real)
(declare-fun x47 () Real)
(declare-fun x48 () Real)
(declare-fun x49 () Real)
(declare-fun f0_1 (Real) Real)
(declare-fun f0_2 (Real Real) Real)
(declare-fun f0_3 (Real Real Real) Real)
(declare-fun f0_4 (Real Real Real Real) Real)
(declare-fun P0 () Bool)
(declare-fun P1 () Bool)
(declare-fun P2 () Bool)
(declare-fun P3 () Bool)
(declare-fun P4 () Bool)
(declare-fun P5 () Bool)
(declare-fun P6 () Bool)
(declare-fun P7 () Bool)
(declare-fun P8 () Bool)
(declare-fun P9 () Bool)
(declare-fun P10 () Bool)
(declare-fun P11 () Bool)
(declare-fun P12 () Bool)
(declare-fun P13 () Bool)
(declare-fun P14 () Bool)
(declare-fun P15 () Bool)
(declare-fun P16 () Bool)
(declare-fun P17 () Bool)
(declare-fun P18 () Bool)
(declare-fun P19 () Bool)
(declare-fun P20 () Bool)
(declare-fun P21 () Bool)
(declare-fun P22 () Bool)
(declare-fun P23 () Bool)
(declare-fun P24 () Bool)
(declare-fun P25 () Bool)
(declare-fun P26 () Bool)
(declare-fun P27 () Bool)
(declare-fun P28 () Bool)
(declare-fun P29 () Bool)
(declare-fun P30 () Bool)
(declare-fun P31 () Bool)
(declare-fun P32 () Bool)
(declare-fun P33 () Bool)
(declare-fun P34 () Bool)
(declare-fun P35 () Bool)
(declare-fun P36 () Bool)
(declare-fun P37 () Bool)
(declare-fun P38 () Bool)
(declare-fun P39 () Bool)
(declare-fun P40 () Bool)
(declare-fun P41 () Bool)
(declare-fun P42 () Bool)
(declare-fun P43 () Bool)
(declare-fun P44 () Bool)
(declare-fun P45 () Bool)
(declare-fun P46 () Bool)
(declare-fun P47 () Bool)
(declare-fun P48 () Bool)
(declare-fun P49 () Bool)
(assert (let ((?v_76 (< (- (+ (* 23 x14) (* 21 x18)) (* 9 x6)) 11)) (?v_142 (* 19 x31)) (?v_94 (< (- (+ (* 9 x12) (* 24 x47)) (* 14 x31)) 13)) (?v_29 (* 27 x38)) (?v_199 (distinct (- (+ (* 9 x20) (* 18 x21)) (* 4 x36)) 7)) (?v_90 (= (- (+ (* 12 x39) (* 2 x33)) (* 12 x23)) 20)) (?v_74 (distinct (- (- (* 3 x44) (* 3 x34)) (* 2 x30)) 0)) (?v_132 (< (+ (- (* 10 x5) (* 14 x4)) (* 19 x48)) 10)) (?v_143 (* 12 x28))) (let ((?v_165 (<= (+ (- ?v_142 ?v_143) (* 27 x48)) 18)) (?v_127 (<= (- (+ (* 23 x32) (* 25 x24)) (* 19 x1)) 25)) (?v_104 (distinct x23 (f0_1 x34))) (?v_156 (= (f0_1 x6) (f0_2 x6 x10))) (?v_15 (= x37 x40)) (?v_70 (distinct x16 x23)) (?v_190 (= x31 x12)) (?v_49 (f0_1 x45))) (let ((?v_126 (= ?v_49 (f0_2 x42 x38))) (?v_212 (= x17 (f0_2 x10 x35))) (?v_105 (= x11 x30)) (?v_162 (f0_1 x19))) (let ((?v_184 (= ?v_162 (f0_2 x39 x15))) (?v_183 (distinct (f0_2 x9 x12) (f0_1 x12))) (?v_16 (f0_1 x28)) (?v_4 (f0_1 x21))) (let ((?v_129 (distinct ?v_16 ?v_4)) (?v_58 (distinct (f0_1 x18) x4)) (?v_27 (distinct ?v_162 x30)) (?v_17 (f0_2 x34 x3))) (let ((?v_8 (distinct ?v_17 ?v_4)) (?v_170 (= x16 (f0_2 x35 x13))) (?v_167 (distinct (f0_2 x45 x11) (f0_2 x30 x2))) (?v_107 (= x9 x13)) (?v_160 (f0_1 x5))) (let ((?v_217 (distinct ?v_160 (f0_1 x38))) (?v_25 (distinct x46 x33)) (?v_43 (f0_1 x31))) (let ((?v_113 (= ?v_43 x17)) (?v_123 (distinct (f0_2 x34 x35) x1)) (?v_186 (distinct x31 x3)) (?v_54 (distinct (f0_2 x13 x13) x24)) (?v_73 (distinct (f0_2 x6 x47) x0)) (?v_243 (distinct x38 (f0_2 x29 x27))) (?v_14 (= (f0_2 x14 x41) (f0_1 x32))) (?v_31 (= (f0_1 x0) (f0_1 x30))) (?v_196 (distinct (f0_2 x15 x37) (f0_2 x48 x33))) (?v_65 (= ?v_49 (f0_2 x20 x48))) (?v_130 (= (f0_2 x48 x34) (f0_1 x35))) (?v_53 (distinct x3 x31)) (?v_101 (= (f0_2 x8 x27) (f0_2 x43 x13))) (?v_26 (f0_1 x25))) (let ((?v_39 (= ?v_26 (f0_2 x41 x48))) (?v_52 (= (f0_1 x47) (f0_1 x17))) (?v_124 (distinct (f0_2 x12 x14) x16)) (?v_18 (= x45 (f0_1 x22))) (?v_227 (distinct (f0_1 x36) (f0_2 x47 x39))) (?v_149 (distinct (f0_1 x37) x47)) (?v_9 (distinct (f0_2 x4 x7) (f0_2 x30 x33))) (?v_71 (distinct (f0_2 x23 x27) (f0_2 x44 x16))) (?v_38 (distinct (f0_2 x7 x10) (f0_2 x44 x2))) (?v_67 (= x43 x19)) (?v_24 (distinct ?v_16 ?v_17)) (?v_92 (distinct x43 (f0_1 x2))) (?v_7 (= (f0_2 x6 x46) (f0_2 x41 x37))) (?v_99 (= x4 ?v_160)) (?v_35 (distinct (f0_1 x27) x25)) (?v_44 (distinct (f0_1 x13) ?v_26)) (?v_12 (distinct (f0_2 x30 x7) ?v_43)) (?v_10 (distinct (f0_1 x7) x32)) (?v_68 (not ?v_196)) (?v_0 (not P46))) (let ((?v_19 (not ?v_12)) (?v_140 (not ?v_8)) (?v_6 (not ?v_92)) (?v_48 (not P6)) (?v_136 (not P37)) (?v_224 (not P39)) (?v_77 (not ?v_52)) (?v_2 (not P13)) (?v_139 (not P11)) (?v_125 (not ?v_18)) (?v_30 (not P3)) (?v_78 (not P29)) (?v_21 (not P5)) (?v_1 (not P34)) (?v_5 (not P43)) (?v_100 (not ?v_129)) (?v_103 (not P40)) (?v_128 (not ?v_190)) (?v_45 (not ?v_130)) (?v_116 (not P41)) (?v_72 (not ?v_7)) (?v_258 (not ?v_38)) (?v_56 (not P12)) (?v_81 (not ?v_10)) (?v_152 (not ?v_14)) (?v_134 (not ?v_70)) (?v_240 (not ?v_107)) (?v_91 (not P38)) (?v_138 (not ?v_24)) (?v_245 (not ?v_25)) (?v_97 (not ?v_44))) (let ((?v_121 (or P5 ?v_97)) (?v_66 (not ?v_31)) (?v_34 (not ?v_65)) (?v_88 (not ?v_58)) (?v_69 (not P21)) (?v_62 (not ?v_126)) (?v_176 (not ?v_53)) (?v_220 (not P36)) (?v_96 (not ?v_127)) (?v_106 (not P9)) (?v_109 (not ?v_170)) (?v_83 (not P48)) (?v_119 (not P16)) (?v_189 (not ?v_15)) (?v_168 (not ?v_94)) (?v_207 (not ?v_101)) (?v_166 (not ?v_35)) (?v_247 (not ?v_73)) (?v_122 (not ?v_74)) (?v_204 (not ?v_76)) (?v_229 (not P27)) (?v_174 (not P28)) (?v_246 (not ?v_67)) (?v_180 (not P22)) (?v_181 (not P20)) (?v_225 (not P1)) (?v_226 (not P10)) (?v_112 (not P32)) (?v_221 (not ?v_105)) (?v_222 (not P2)) (?v_153 (not P15)) (?v_233 (not P35)) (?v_155 (not P24)) (?v_171 (not ?v_183)) (?v_187 (not ?v_113)) (?v_163 (not ?v_123)) (?v_237 (not P19)) (?v_209 (not ?v_124)) (?v_145 (not ?v_243)) (?v_195 (not P4)) (?v_188 (not ?v_99)) (?v_148 (not P7)) (?v_213 (not ?v_156)) (?v_147 (not ?v_104)) (?v_172 (not ?v_227)) (?v_177 (not ?v_71)) (?v_157 (not ?v_54)) (?v_208 (not P14)) (?v_191 (not P49)) (?v_175 (not ?v_217)) (?v_201 (not ?v_165)) (?v_205 (not ?v_27)) (?v_223 (not ?v_132)) (?v_193 (not P42)) (?v_210 (not P18)) (?v_194 (not P8)) (?v_242 (not P17)) (?v_202 (not ?v_186)) (?v_214 (not P45)) (?v_241 (not ?v_149)) (?v_219 (not P26)) (?v_256 (not P0)) (?v_206 (not ?v_90)) (?v_234 (not P31)) (?v_250 (not P47)) (?v_215 (not P25)) (?v_248 (not P33)) (?v_211 (not ?v_39)) (?v_253 (not P44)) (?v_231 (not ?v_212)) (?v_238 (not ?v_199)) (?v_239 (not ?v_184)) (?v_228 (not P30))) (let ((?v_252 (or ?v_228 ?v_2)) (?v_254 (or ?v_177 ?v_71)) (?v_249 (not ?v_9)) (?v_63 (< (- (- 0 (* 25 x16)) (* 8 x40)) 7))) (let ((?v_232 (not ?v_63)) (?v_61 (< (+ (* 10 x34) (* 5 x36) (* 11 x16)) 10))) (let ((?v_257 (not ?v_61)) (?v_37 (= (+ (* 3 x36) (* 4 x7) x31) 1)) (?v_40 (<= (+ (* 11 x42) (* 19 x17) (* 17 x23)) 11)) (?v_154 (< (- (- 0 (* 21 x23)) (* 12 x32)) 4))) (let ((?v_169 (not ?v_154)) (?v_200 (not ?v_37)) (?v_255 (not ?v_40)) (?v_13 (< (+ (* (- 21) x34) (* 6 x21) (* 3 x3)) (- 26))) (?v_102 (< (+ (* (- 21) x39) (* 17 x1) (* 5 x39)) 7))) (let ((?v_82 (not ?v_102)) (?v_11 (distinct (+ (* (- 13) x3) (* 14 x42) (* 22 x25)) 26)) (?v_23 (= (- (- (* 14 x2) (* 7 x35)) (* 17 x39)) (- 24))) (?v_3 (<= (- (- (* 6 x38) (* 15 x21)) (* 6 x15)) (- 15))) (?v_75 (distinct (+ (* (- 5) x17) (* 23 x28) (* 27 x15)) 2)) (?v_80 (<= (+ (* (- 24) x41) (* 6 x31) (* 6 x36)) (- 4)))) (let ((?v_36 (not ?v_80)) (?v_42 (<= (+ (* (- 27) x26) (* 22 x47) (* 17 x8)) 0))) (let ((?v_46 (not ?v_42)) (?v_57 (= (- (+ (* (- 6) x19) (* 11 x39)) (* 23 x36)) (- 25)))) (let ((?v_33 (not ?v_57)) (?v_22 (= (- (- (* 21 x5) (* 21 x8)) ?v_142) (- 11)))) (let ((?v_47 (not ?v_22)) (?v_89 (< (+ (* (- 27) x13) (* 24 x45) (* 4 x34)) 22))) (let ((?v_131 (not ?v_89)) (?v_120 (< (- (- (* (- 26) x11) (* 17 x21)) (* 15 x27)) 7))) (let ((?v_59 (not ?v_120)) (?v_159 (< (- (- (* (- 4) x45) ?v_29) (* 20 x48)) (- 27))) (?v_20 (< (- 0 (* 14 x20)) (- 7)))) (let ((?v_251 (not ?v_20)) (?v_64 (= (- (+ (* (- 12) x33) (* 11 x20)) 0) 23))) (let ((?v_244 (not ?v_64)) (?v_51 (<= (- (+ (* (- 15) x16) (* 27 x34)) (* 17 x32)) (- 25))) (?v_93 (<= (+ (* 17 x2) (* 27 x12) (* 13 x22)) (- 5)))) (let ((?v_87 (not ?v_93)) (?v_41 (not ?v_23)) (?v_150 (<= (- (- (* (- 1) x25) (* 20 x23)) (* 2 x29)) (- 12)))) (let ((?v_198 (not ?v_150)) (?v_28 (<= (- (- (* 2 x2) (* 15 x30)) 0) (- 18))) (?v_32 (= (+ (* (- 2) x4) (* 13 x36) (* 24 x30)) 12))) (let ((?v_84 (not ?v_32)) (?v_135 (not ?v_28)) (?v_118 (<= (+ (- (* (- 2) x19) (* 4 x14)) ?v_29) 15)) (?v_117 (<= (- (- (* 3 x10) (* 6 x22)) (* 17 x37)) (- 7)))) (let ((?v_85 (not ?v_117)) (?v_50 (<= (- (* (- 5) x40) (* 17 x3)) 15))) (let ((?v_110 (not ?v_50)) (?v_137 (<= (- (- (* (- 16) x25) (* 3 x20)) (* 9 x43)) (- 17)))) (let ((?v_98 (not ?v_137)) (?v_55 (<= (+ (* (- 6) x24) (* 20 x21) (* 26 x14)) 3)) (?v_218 (not ?v_51))) (let ((?v_60 (not ?v_55)) (?v_95 (not ?v_3)) (?v_86 (<= (+ (* 12 x43) (* 4 x9) (* 27 x23)) (- 11))) (?v_108 (< (- (- (* (- 13) x17) ?v_143) (* 4 x3)) 27)) (?v_133 (distinct (+ (- 0 (* 2 x47)) x7) (- 22))) (?v_79 (<= (- (+ (* (- 12) x8) (* 25 x19)) (* 25 x38)) 23))) (let ((?v_151 (not ?v_79)) (?v_197 (not ?v_11)) (?v_111 (distinct (+ (* (- 2) x18) (* 9 x14) (* 20 x16)) (- 3))) (?v_158 (<= (- (- (* (- 18) x35) 0) (* 8 x41)) (- 3)))) (let ((?v_178 (not ?v_158)) (?v_114 (<= (- (+ (* (- 22) x26) (* 17 x40)) (* 11 x38)) (- 15))) (?v_146 (<= (- (- (* (- 7) x20) (* 10 x30)) (* 11 x26)) (- 20)))) (let ((?v_192 (not ?v_146)) (?v_164 (<= (- (+ (* (- 16) x32) (* 9 x47)) (* 6 x43)) 1))) (let ((?v_185 (not ?v_164)) (?v_115 (not ?v_108)) (?v_141 (<= (- (- (* (- 20) x21) (* 13 x46)) (* 14 x5)) (- 27))) (?v_179 (not ?v_118)) (?v_144 (not ?v_86)) (?v_182 (not ?v_133))) (let ((?v_161 (not ?v_141)) (?v_203 (<= (- (* 20 x38) (* 6 x7)) (- 22))) (?v_173 (not ?v_159)) (?v_216 (not ?v_111)) (?v_230 (= (- (+ (* 5 x22) (* 13 x8)) 0) (- 10)))) (let ((?v_259 (not ?v_230)) (?v_235 (not ?v_13)) (?v_236 (not ?v_203))) (and (and (and (and (and (and (and (and (and (and (and (and (and (and (and (and (and (and (and (and (and (and (and (and (and (and (and (and (and (and (and (and (and (and (and (and (and (and (and (and (and (and (and (and (and (and (and (and (and (and (and (and (and (and (and (and (and (and (and (and (and (and (and (and (and (and (and (and (and (and (and (and (and (and (and (and (and (and (and (and (and (and (and (and (and (and (and (and (and (and (and (and (and (and (and (and (and (and (and (and (and (and (and (and (and (and (and (and (and (and (and (and (and (and (and (and (and (and (and (and (and (and (and (and (and (and (and (and (and (and (and (and (and (and (and (and (and (and (and (and (and (and (and (and (and (and (and (and (and (and (and (and (and (and (and (and (and (and (and (and (and (and (and (and (and (and (and (and (and (and (and (and (and (and (and (and (and (and (and (and (and (and (and (and (and (and (and (and (and (and (and (and (and (and (and (and (and (and (and (and (and (and (and (and (and (and (and (and (and (and (and (and (and (and (and (and (and (and (and (and (and (and (and (and (and (and (and (and (and (and (and (and (and (and (and (and (and (and (and (and (and (and (and (and (and (and (and (and (and (and (and (and (and (and (and (and (and (and (and (and (and (and (and (and (and (and (and (and (and (and (and (and (and (and (and (and (and (and (and (and (and (and (and (and (and (and (and (and (and (and (and (and (and (and (and (and (and (and (and (and (and (and (and (and (and (and (and (and (and (and (and (and (and (and (and (and (and (and (and (and (and (and (and (and (and (and (and (and (and (and (and (and (and (and (and (and (and (and (and (and (and (and (and (and (and (and (and (and (and (and (and (and (and (and (and (and (and (and (and (and (and (and (and (and (and (and (and (and (and (and (and (and (and (and (and (and (and (and (and (and (and (and (and (and (and (and (and (and (and (and (and (and (and (and (and (and (and (and (and (and (and (and (and (and (and (and (and (and (and (and (and (and (and (and (and (and (and (and (and (and (and (and (and (and (and (and (and (and (and (and (and (and (and (and (and (and (and (and (and (and (and (and (and (and (and (and (and (and (and (and (and (and (and (and (and (and (and (and (and (and (and (and (and (and (and (and (and (and (and (and (and (and (and (and (and (and (and (and (and (and (and (and (and (and (and (and (and (and (and (and (and (and (and (and (and (and (and (and (and (and (and (and (and (and (and (and (and (and (and (and (and (and (and (and (and (and (and (and (and (and (and (and (and (and (and (and (and (and (and (and (and (and (and (and (and (and (and (and (and (and (and (and (and (and (and (and (and (and (and (and (and (and (and (and (and (and (and (and (and (and (and (and (and (and (and (and (and (and (and (and (and (and (and (and (and (and (and (and (and (and (and (and (and (and (and (and (and (and (and (and (and (and (and (and (and (and (and (and (and (or (or ?v_71 ?v_232) ?v_13) (or (or ?v_82 ?v_11) ?v_68)) (or (or ?v_67 P26) ?v_105)) (or (or ?v_0 ?v_19) ?v_140)) (or (or ?v_6 P31) ?v_48)) (or (or ?v_23 ?v_104) ?v_136)) (or (or ?v_3 (not ?v_75)) ?v_224)) (or (or P47 ?v_53) P40)) (or (or ?v_257 ?v_77) ?v_2)) (or (or ?v_139 ?v_0) ?v_15)) (or (or ?v_125 ?v_30) ?v_78)) (or (or ?v_36 ?v_21) P1)) (or (or ?v_9 ?v_1) ?v_37)) (or (or ?v_1 P39) ?v_27)) (or (or P47 P16) ?v_2)) (or (or ?v_3 ?v_46) P23)) (or (or P13 ?v_5) ?v_100)) (or (or ?v_7 ?v_33) ?v_47)) (or (or ?v_35 ?v_131) ?v_103)) (or (or ?v_5 ?v_6) ?v_10)) (or (or ?v_59 ?v_39) ?v_128)) (or (or ?v_45 ?v_14) ?v_116)) (or (or ?v_149 P21) ?v_72)) (or (or P34 P6) ?v_2)) (or (or P35 ?v_8) P6)) (or (or ?v_258 ?v_9) ?v_159)) (or (or ?v_251 ?v_56) ?v_81)) (or (or ?v_11 ?v_12) ?v_13)) (or (or P49 ?v_152) ?v_244)) (or (or ?v_134 ?v_15) ?v_24)) (or (or ?v_18 P35) ?v_240)) (or (or ?v_91 ?v_19) ?v_15)) (or (or ?v_25 ?v_51) P31)) (or (or P24 ?v_20) ?v_21)) (or (or ?v_87 ?v_15) ?v_22)) (or (or ?v_41 ?v_198) ?v_13)) (or (or ?v_138 ?v_40) ?v_28)) (or (or ?v_18 ?v_84) ?v_245)) (or ?v_121 ?v_66)) (or (or ?v_34 ?v_27) ?v_135)) (or (or ?v_118 P9) ?v_30)) (or (or ?v_88 ?v_31) ?v_32)) (or (or ?v_21 P11) P30)) (or (or ?v_85 P24) ?v_32)) (or (or P39 ?v_33) ?v_34)) (or (or ?v_35 ?v_36) ?v_37)) (or (or ?v_110 ?v_38) ?v_27)) (or (or ?v_30 ?v_39) ?v_12)) (or (or ?v_40 ?v_98) ?v_69)) (or (or ?v_55 ?v_31) P11)) (or (or ?v_41 ?v_19) ?v_42)) (or (or P19 P11) P23)) (or (or ?v_113 ?v_44) ?v_45)) (or (or ?v_46 ?v_47) ?v_74)) (or (or ?v_24 ?v_48) ?v_62)) (or (or ?v_54 ?v_50) ?v_218)) (or (or ?v_52 ?v_176) P45)) (or (or ?v_2 ?v_73) P21)) (or (or P0 P35) ?v_28)) (or (or ?v_54 ?v_36) ?v_60)) (or (or ?v_48 ?v_56) ?v_57)) (or (or ?v_58 P39) ?v_76)) (or (or P41 ?v_59) ?v_220)) (or (or ?v_60 ?v_212) ?v_27)) (or (or ?v_61 ?v_96) ?v_124)) (or (or ?v_99 ?v_106) ?v_109)) (or (or ?v_62 ?v_63) ?v_0)) (or (or P19 ?v_62) ?v_64)) (or (or P1 P49) ?v_56)) (or (or ?v_65 ?v_66) ?v_67)) (or (or ?v_68 ?v_56) ?v_0)) (or (or ?v_69 ?v_5) ?v_32)) (or (or ?v_25 ?v_83) ?v_186)) (or (or ?v_119 ?v_70) ?v_71)) (or (or P28 ?v_189) P34)) (or (or ?v_95 ?v_168) ?v_207)) (or (or ?v_166 ?v_86) ?v_72)) (or (or P46 P39) ?v_247)) (or (or ?v_39 ?v_122) ?v_108)) (or (or ?v_133 P36) ?v_79)) (or (or ?v_21 ?v_56) ?v_12)) (or (or ?v_75 ?v_204) ?v_77)) (or (or ?v_229 P22) ?v_78)) (or (or ?v_151 ?v_34) ?v_80)) (or (or ?v_23 ?v_25) ?v_174)) (or (or ?v_81 ?v_197) P6)) (or (or ?v_132 ?v_246) ?v_111)) (or (or ?v_82 ?v_45) ?v_83)) (or (or ?v_82 ?v_84) ?v_85)) (or (or ?v_86 ?v_90) ?v_87)) (or (or P16 ?v_78) ?v_180)) (or (or P36 ?v_88) ?v_89)) (or (or ?v_90 ?v_91) ?v_92)) (or (or P25 ?v_154) ?v_93)) (or (or ?v_94 ?v_95) ?v_181)) (or (or ?v_96 P47) ?v_48)) (or (or ?v_97 P22) ?v_178)) (or (or ?v_225 P7) ?v_98)) (or (or ?v_226 ?v_59) ?v_99)) (or (or ?v_100 P21) ?v_58)) (or (or ?v_101 ?v_102) ?v_103)) (or (or ?v_167 ?v_14) ?v_114)) (or (or ?v_94 ?v_112) ?v_54)) (or (or ?v_15 P46) ?v_99)) (or (or P35 ?v_104) ?v_221)) (or (or P48 ?v_222) ?v_106)) (or (or ?v_192 ?v_153) ?v_92)) (or (or P8 ?v_48) P29)) (or (or ?v_20 ?v_78) ?v_54)) (or (or ?v_3 ?v_107) ?v_185)) (or (or ?v_115 ?v_75) ?v_109)) (or (or ?v_21 ?v_19) P45)) (or (or ?v_7 ?v_100) ?v_12)) (or (or ?v_59 P18) ?v_89)) (or (or ?v_104 ?v_233) ?v_155)) (or (or ?v_110 ?v_15) P3)) (or (or ?v_61 P24) ?v_37)) (or (or ?v_111 ?v_112) P13)) (or (or P25 ?v_171) ?v_2)) (or (or ?v_92 ?v_187) P40)) (or (or P39 P21) ?v_114)) (or (or P25 ?v_86) ?v_115)) (or (or ?v_116 P26) ?v_117)) (or (or ?v_163 P21) P46)) (or (or ?v_199 P39) ?v_141)) (or (or ?v_179 P14) ?v_66)) (or (or ?v_113 P48) ?v_71)) (or (or ?v_237 ?v_119) P43)) (or (or ?v_120 ?v_84) P46)) (or ?v_121 ?v_122)) (or (or ?v_123 P42) ?v_209)) (or (or ?v_105 ?v_60) ?v_145)) (or (or P5 ?v_1) ?v_195)) (or (or ?v_38 P13) ?v_23)) (or (or ?v_58 P1) ?v_55)) (or (or P25 ?v_125) ?v_188)) (or (or ?v_126 ?v_41) ?v_144)) (or (or ?v_94 ?v_37) ?v_8)) (or (or ?v_48 ?v_70) ?v_120)) (or (or ?v_127 ?v_128) ?v_129)) (or (or ?v_130 P18) ?v_88)) (or (or ?v_36 ?v_131) ?v_132)) (or (or ?v_61 ?v_68) ?v_132)) (or (or ?v_92 ?v_182) P34)) (or (or ?v_134 P38) ?v_14)) (or (or P8 ?v_135) ?v_136)) (or (or ?v_137 ?v_138) ?v_139)) (or (or ?v_140 ?v_128) P20)) (or (or ?v_148 ?v_132) P44)) (or (or ?v_132 ?v_141) P7)) (or (or ?v_165 ?v_144) ?v_61)) (or (or P35 P42) ?v_145)) (or (or ?v_60 ?v_213) ?v_2)) (or (or ?v_37 ?v_58) P30)) (or (or P23 P6) ?v_124)) (or (or ?v_161 ?v_147) ?v_146)) (or (or ?v_147 ?v_98) ?v_132)) (or (or ?v_172 ?v_5) P48)) (or (or ?v_19 ?v_148) ?v_37)) (or (or ?v_30 P4) ?v_149)) (or (or ?v_146 ?v_177) P41)) (or (or ?v_150 ?v_107) ?v_60)) (or (or ?v_40 ?v_100) ?v_102)) (or (or P35 ?v_118) ?v_5)) (or (or ?v_157 ?v_147) ?v_208)) (or (or ?v_94 ?v_32) P28)) (or (or ?v_117 ?v_151) ?v_119)) (or (or ?v_69 ?v_112) ?v_45)) (or (or ?v_118 P13) ?v_33)) (or (or ?v_191 ?v_152) ?v_51)) (or (or ?v_134 ?v_80) ?v_153)) (or (or ?v_19 ?v_169) ?v_21)) (or (or ?v_86 ?v_203) ?v_119)) (or (or ?v_155 ?v_156) ?v_32)) (or (or P1 ?v_151) ?v_66)) (or (or P22 ?v_157) ?v_85)) (or (or ?v_158 ?v_86) P3)) (or (or ?v_173 ?v_113) ?v_156)) (or (or ?v_175 ?v_27) ?v_13)) (or (or ?v_39 ?v_100) ?v_161)) (or (or P38 ?v_144) ?v_184)) (or (or P30 ?v_124) ?v_62)) (or (or ?v_67 P47) ?v_163)) (or (or ?v_148 ?v_164) P16)) (or (or ?v_90 ?v_37) ?v_19)) (or (or ?v_201 ?v_47) ?v_56)) (or (or ?v_205 ?v_223) ?v_166)) (or (or ?v_166 ?v_123) ?v_33)) (or (or ?v_53 ?v_6) ?v_108)) (or (or ?v_101 (not ?v_167)) ?v_41)) (or (or ?v_132 P9) ?v_141)) (or (or ?v_168 ?v_193) ?v_210)) (or (or ?v_75 ?v_44) ?v_42)) (or (or ?v_73 ?v_79) ?v_169)) (or (or ?v_141 ?v_132) ?v_170)) (or (or ?v_171 ?v_172) ?v_56)) (or (or ?v_173 ?v_62) (not P23))) (or (or ?v_85 ?v_134) ?v_107)) (or (or ?v_174 ?v_175) ?v_58)) (or (or ?v_127 ?v_60) ?v_124)) (or (or ?v_70 P27) ?v_47)) (or (or P16 ?v_105) P12)) (or (or ?v_67 ?v_176) ?v_200)) (or (or ?v_177 ?v_89) P5)) (or (or ?v_79 ?v_40) ?v_152)) (or (or P14 ?v_194) ?v_178)) (or (or ?v_154 P18) ?v_13)) (or (or ?v_94 ?v_72) ?v_20)) (or (or ?v_139 ?v_179) P23)) (or (or ?v_157 ?v_54) ?v_11)) (or (or ?v_19 ?v_91) ?v_64)) (or (or ?v_45 P35) ?v_180)) (or (or P19 ?v_116) ?v_175)) (or (or ?v_165 ?v_181) ?v_11)) (or (or P30 ?v_37) ?v_80)) (or (or ?v_154 ?v_182) ?v_60)) (or (or ?v_64 ?v_130) ?v_6)) (or (or ?v_216 ?v_94) ?v_242)) (or (or P31 P36) P34)) (or (or ?v_95 ?v_0) ?v_183)) (or (or ?v_183 ?v_130) ?v_91)) (or (or ?v_135 ?v_184) ?v_185)) (or (or ?v_93 ?v_169) ?v_202)) (or (or ?v_104 ?v_214) ?v_187)) (or (or P36 ?v_12) P32)) (or (or P0 ?v_65) ?v_75)) (or (or ?v_188 ?v_51) ?v_9)) (or (or ?v_40 ?v_55) ?v_62)) (or (or ?v_128 ?v_166) ?v_111)) (or (or P27 P39) ?v_93)) (or (or ?v_241 P47) ?v_189)) (or (or ?v_63 ?v_41) ?v_28)) (or (or ?v_190 ?v_12) ?v_219)) (or (or P7 ?v_159) ?v_168)) (or (or ?v_80 ?v_96) ?v_22)) (or (or ?v_116 ?v_164) ?v_186)) (or (or ?v_40 P4) ?v_89)) (or (or P4 ?v_191) P12)) (or (or P38 ?v_192) ?v_22)) (or (or ?v_256 ?v_14) P34)) (or (or ?v_76 P46) ?v_170)) (or (or ?v_172 ?v_45) P6)) (or (or ?v_159 ?v_28) ?v_130)) (or (or ?v_39 ?v_193) ?v_118)) (or (or P0 ?v_139) ?v_194)) (or (or ?v_60 ?v_60) ?v_131)) (or (or P32 ?v_25) ?v_85)) (or (or ?v_61 ?v_140) ?v_206)) (or (or ?v_118 ?v_149) ?v_159)) (or (or ?v_105 ?v_12) ?v_135)) (or (or ?v_112 ?v_112) ?v_72)) (or (or ?v_195 ?v_196) P20)) (or (or ?v_132 ?v_124) ?v_197)) (or (or P6 ?v_234) ?v_36)) (or (or ?v_147 ?v_250) ?v_198)) (or (or ?v_44 ?v_19) P30)) (or (or ?v_45 ?v_36) ?v_135)) (or (or ?v_116 ?v_199) P15)) (or (or ?v_86 P23) ?v_82)) (or (or ?v_189 ?v_125) ?v_138)) (or (or ?v_27 P48) ?v_108)) (or (or ?v_200 ?v_97) P11)) (or (or ?v_113 ?v_10) P16)) (or (or P44 ?v_39) ?v_201)) (or (or ?v_202 ?v_28) ?v_11)) (or (or ?v_67 P43) ?v_190)) (or (or ?v_106 ?v_115) ?v_60)) (or (or ?v_186 ?v_215) ?v_15)) (or (or P13 ?v_203) ?v_147)) (or (or ?v_19 ?v_3) ?v_153)) (or (or ?v_82 ?v_83) ?v_204)) (or (or ?v_48 ?v_120) ?v_205)) (or (or ?v_163 ?v_134) ?v_170)) (or (or ?v_106 ?v_51) P41)) (or (or ?v_151 ?v_107) P33)) (or (or ?v_206 ?v_119) ?v_191)) (or (or ?v_207 ?v_133) ?v_175)) (or (or ?v_188 P40) ?v_208)) (or (or ?v_248 ?v_183) P8)) (or (or ?v_209 ?v_195) ?v_158)) (or (or ?v_166 P49) ?v_210)) (or (or ?v_179 ?v_23) P11)) (or (or ?v_188 ?v_3) ?v_194)) (or (or ?v_211 ?v_10) ?v_86)) (or (or ?v_1 ?v_200) P48)) (or (or ?v_211 ?v_212) ?v_102)) (or (or ?v_21 ?v_200) ?v_93)) (or (or P47 ?v_125) ?v_213)) (or (or ?v_125 P12) P21)) (or (or ?v_20 ?v_156) ?v_253)) (or (or ?v_46 P38) ?v_214)) (or (or P16 ?v_231) ?v_13)) (or (or ?v_101 P11) P44)) (or (or ?v_215 ?v_184) ?v_108)) (or (or ?v_170 ?v_15) ?v_216)) (or (or P18 P14) ?v_238)) (or (or ?v_50 P35) P46)) (or (or P3 ?v_217) ?v_199)) (or (or P30 ?v_218) P31)) (or (or ?v_239 P19) ?v_218)) (or (or ?v_219 ?v_129) ?v_47)) (or (or P38 ?v_94) P34)) (or (or P38 ?v_208) ?v_220)) (or (or ?v_66 P47) ?v_50)) (or (or ?v_40 ?v_68) ?v_149)) (or (or ?v_101 ?v_92) ?v_221)) (or (or ?v_179 ?v_79) ?v_165)) (or (or ?v_206 P49) ?v_52)) (or (or ?v_93 P30) ?v_2)) (or (or P22 ?v_211) ?v_208)) (or (or ?v_222 ?v_22) ?v_32)) (or (or ?v_124 P6) ?v_133)) (or (or ?v_65 ?v_202) ?v_111)) (or (or P3 ?v_199) P6)) (or (or P24 ?v_104) ?v_44)) (or (or ?v_221 ?v_25) ?v_108)) (or (or ?v_164 ?v_170) ?v_48)) (or (or ?v_97 ?v_50) ?v_39)) (or (or ?v_223 ?v_224) ?v_212)) (or (or ?v_108 ?v_177) ?v_69)) (or (or ?v_79 ?v_225) ?v_73)) (or (or P46 ?v_182) ?v_259)) (or (or ?v_84 ?v_148) ?v_177)) (or (or P44 ?v_226) ?v_54)) (or (or ?v_156 P30) P15)) (or (or ?v_169 ?v_39) ?v_227)) (or (or ?v_120 ?v_105) ?v_98)) (or (or ?v_123 ?v_207) ?v_222)) (or (or P20 ?v_2) P14)) (or (or ?v_52 ?v_1) ?v_115)) (or (or ?v_169 ?v_94) ?v_161)) (or (or ?v_116 P13) ?v_98)) (or (or ?v_41 ?v_110) ?v_95)) (or ?v_252 ?v_57)) (or (or ?v_110 ?v_178) ?v_39)) (or (or ?v_79 ?v_84) ?v_175)) (or (or ?v_190 ?v_79) P22)) (or (or ?v_96 ?v_74) ?v_138)) (or (or P1 ?v_71) ?v_19)) (or (or P38 P23) P24)) (or (or ?v_228 ?v_227) ?v_123)) (or (or ?v_54 P40) ?v_65)) (or (or ?v_103 ?v_169) ?v_2)) (or (or P8 ?v_115) ?v_195)) (or (or ?v_107 P31) ?v_229)) (or (or ?v_230 ?v_115) ?v_50)) (or (or ?v_40 ?v_62) ?v_87)) (or (or P23 ?v_117) ?v_129)) (or (or ?v_229 ?v_201) ?v_184)) (or (or ?v_235 ?v_168) ?v_180)) (or ?v_254 ?v_167)) (or (or P28 ?v_53) ?v_62)) (or (or ?v_122 ?v_120) P2)) (or (or ?v_208 P46) ?v_105)) (or (or ?v_85 P36) ?v_199)) (or (or ?v_30 ?v_66) P5)) (or (or ?v_231 ?v_236) ?v_232)) (or (or ?v_113 ?v_205) P34)) (or (or (not ?v_114) ?v_84) P22)) (or (or ?v_125 ?v_90) ?v_5)) (or (or ?v_13 P29) P46)) (or (or ?v_150 ?v_179) P39)) (or (or ?v_181 ?v_169) ?v_233)) (or (or ?v_161 ?v_191) ?v_224)) (or (or ?v_161 ?v_1) ?v_234)) (or (or P17 ?v_96) ?v_235)) (or (or P17 ?v_236) ?v_22)) (or (or ?v_199 ?v_94) ?v_151)) (or (or ?v_180 ?v_23) ?v_194)) (or (or ?v_19 P48) ?v_6)) (or (or ?v_62 ?v_145) ?v_6)) (or (or ?v_141 ?v_237) ?v_2)) (or (or P8 ?v_65) P20)) (or (or ?v_103 ?v_132) ?v_14)) (or (or P36 ?v_94) ?v_219)) (or (or ?v_137 ?v_39) ?v_76)) (or (or ?v_221 ?v_118) ?v_28)) (or (or ?v_218 ?v_177) ?v_6)) (or (or ?v_169 ?v_233) P47)) (or (or ?v_238 ?v_176) ?v_206)) (or (or ?v_217 ?v_99) P3)) (or (or ?v_211 ?v_126) ?v_127)) (or (or ?v_90 ?v_85) ?v_180)) (or (or ?v_38 ?v_196) ?v_168)) (or (or ?v_217 ?v_79) ?v_93)) (or (or ?v_23 ?v_21) ?v_190)) (or (or ?v_139 P27) ?v_134)) (or (or ?v_48 ?v_139) ?v_225)) (or (or ?v_1 P8) ?v_214)) (or (or ?v_122 ?v_18) ?v_239)) (or (or ?v_172 P11) ?v_240)) (or (or ?v_202 P6) ?v_115)) (or (or P38 ?v_187) ?v_164)) (or (or ?v_157 ?v_56) ?v_74)) (or (or ?v_134 ?v_82) P3)) (or (or ?v_213 ?v_192) ?v_241)) (or (or ?v_40 ?v_91) ?v_198)) (or (or ?v_164 ?v_153) P39)) (or (or ?v_53 ?v_86) ?v_193)) (or (or P13 ?v_156) ?v_232)) (or (or ?v_153 ?v_181) ?v_78)) (or (or ?v_221 ?v_226) ?v_205)) (or (or ?v_106 P26) ?v_151)) (or (or ?v_242 ?v_158) ?v_140)) (or (or ?v_149 ?v_146) ?v_243)) (or (or ?v_239 ?v_208) ?v_42)) (or (or P49 P13) ?v_244)) (or (or ?v_232 ?v_179) P46)) (or (or ?v_211 ?v_169) ?v_5)) (or (or ?v_58 ?v_71) ?v_64)) (or (or ?v_78 P46) ?v_245)) (or (or ?v_56 ?v_55) P39)) (or (or ?v_178 ?v_144) P27)) (or (or ?v_40 ?v_8) ?v_13)) (or (or ?v_36 ?v_91) ?v_249)) (or (or ?v_185 ?v_27) ?v_192)) (or (or ?v_96 ?v_40) ?v_35)) (or (or ?v_42 ?v_71) ?v_81)) (or (or P49 ?v_79) ?v_106)) (or (or ?v_67 ?v_159) ?v_221)) (or (or ?v_115 ?v_45) ?v_77)) (or (or ?v_104 ?v_222) ?v_141)) (or (or ?v_105 P35) ?v_124)) (or (or ?v_225 ?v_223) P43)) (or (or ?v_223 ?v_236) ?v_140)) (or (or ?v_20 P36) ?v_0)) (or (or ?v_118 ?v_209) ?v_208)) (or (or ?v_155 ?v_225) ?v_170)) (or (or ?v_240 ?v_245) ?v_128)) (or (or ?v_129 ?v_133) ?v_178)) (or (or P27 ?v_82) ?v_6)) (or (or ?v_100 ?v_80) P16)) (or (or P38 ?v_240) ?v_58)) (or (or ?v_181 P41) ?v_227)) (or (or ?v_93 ?v_62) ?v_47)) (or (or ?v_238 ?v_0) ?v_246)) (or (or P28 P24) ?v_189)) (or (or ?v_76 ?v_91) ?v_101)) (or (or ?v_242 ?v_65) ?v_190)) (or (or ?v_115 ?v_163) ?v_247)) (or (or P19 ?v_5) ?v_11)) (or (or ?v_231 ?v_40) ?v_135)) (or (or P35 ?v_23) ?v_42)) (or (or ?v_0 ?v_128) ?v_248)) (or (or ?v_213 ?v_238) P47)) (or (or ?v_125 P10) ?v_90)) (or (or ?v_149 ?v_38) ?v_85)) (or (or ?v_67 ?v_123) ?v_249)) (or (or P2 ?v_5) ?v_176)) (or (or ?v_106 ?v_240) ?v_155)) (or (or ?v_146 ?v_124) ?v_136)) (or (or ?v_92 ?v_36) ?v_244)) (or (or ?v_91 ?v_167) ?v_190)) (or (or ?v_6 ?v_9) P47)) (or (or ?v_131 ?v_227) P30)) (or (or ?v_105 ?v_21) ?v_53)) (or (or ?v_79 ?v_145) ?v_159)) (or (or ?v_118 ?v_171) ?v_222)) (or (or ?v_87 ?v_144) ?v_21)) (or (or ?v_158 ?v_215) P27)) (or (or ?v_201 ?v_201) ?v_10)) (or (or ?v_46 ?v_79) ?v_250)) (or (or ?v_213 ?v_189) ?v_225)) (or (or ?v_217 ?v_218) ?v_150)) (or (or ?v_44 ?v_30) ?v_89)) (or (or ?v_73 ?v_236) P7)) (or (or ?v_169 ?v_69) ?v_221)) (or (or ?v_212 ?v_215) ?v_251)) (or (or ?v_155 ?v_89) ?v_110)) (or (or ?v_135 ?v_93) ?v_11)) (or (or ?v_101 ?v_219) ?v_51)) (or (or ?v_227 ?v_191) ?v_110)) (or (or ?v_180 ?v_78) ?v_131)) (or (or P17 ?v_191) ?v_188)) (or (or ?v_199 P36) ?v_27)) (or (or ?v_137 P10) ?v_124)) (or (or ?v_87 P16) P15)) (or (or ?v_211 ?v_131) ?v_74)) (or (or P23 P35) ?v_97)) (or (or ?v_73 P15) ?v_117)) (or (or P48 ?v_8) ?v_139)) (or (or ?v_147 ?v_32) ?v_171)) (or (or ?v_240 ?v_112) P37)) (or (or ?v_150 P21) ?v_6)) (or (or ?v_174 P25) ?v_188)) (or (or ?v_147 ?v_5) P36)) (or (or ?v_250 ?v_36) ?v_88)) (or (or P25 ?v_75) ?v_31)) (or (or ?v_46 ?v_60) ?v_170)) (or ?v_252 ?v_213)) (or (or ?v_179 P2) ?v_202)) (or (or P11 ?v_185) ?v_168)) (or (or ?v_111 ?v_134) P25)) (or (or ?v_232 ?v_186) P28)) (or (or ?v_56 P32) ?v_127)) (or (or ?v_210 ?v_86) ?v_157)) (or (or ?v_94 P45) ?v_132)) (or (or P17 ?v_117) ?v_127)) (or (or ?v_101 ?v_35) ?v_11)) (or (or P0 ?v_193) ?v_246)) (or (or ?v_233 P12) P47)) (or (or P43 ?v_235) ?v_169)) (or (or ?v_73 ?v_209) ?v_12)) (or (or ?v_122 ?v_200) P28)) (or (or P6 P34) P3)) (or (or ?v_240 ?v_188) ?v_200)) (or (or ?v_177 P22) ?v_15)) (or (or ?v_123 ?v_130) ?v_59)) (or (or ?v_31 P43) P22)) (or (or ?v_182 ?v_167) ?v_247)) (or (or ?v_229 P10) ?v_41)) (or (or ?v_140 ?v_97) ?v_248)) (or (or ?v_79 ?v_137) ?v_150)) (or (or P37 P1) ?v_50)) (or (or ?v_167 P28) ?v_44)) (or (or ?v_198 ?v_27) P45)) (or (or ?v_157 P20) ?v_141)) (or (or ?v_152 ?v_57) ?v_253)) (or (or ?v_161 ?v_220) ?v_229)) (or (or ?v_12 ?v_178) ?v_208)) (or (or ?v_202 ?v_169) ?v_96)) (or (or ?v_179 P46) ?v_196)) (or (or ?v_80 P43) P12)) (or (or P23 ?v_210) ?v_145)) (or (or ?v_129 ?v_214) ?v_226)) (or (or ?v_36 ?v_57) ?v_62)) (or (or ?v_165 ?v_169) ?v_246)) (or (or ?v_96 ?v_208) ?v_223)) (or (or ?v_189 ?v_74) ?v_125)) (or (or ?v_187 ?v_92) ?v_87)) (or (or ?v_133 ?v_68) ?v_158)) (or (or ?v_135 P2) ?v_224)) (or (or ?v_84 P45) ?v_163)) (or (or ?v_96 ?v_0) ?v_237)) (or (or ?v_68 ?v_41) ?v_202)) (or (or ?v_90 ?v_38) ?v_151)) (or (or ?v_60 ?v_230) ?v_88)) (or (or ?v_65 ?v_222) ?v_111)) (or (or ?v_114 ?v_126) ?v_167)) (or (or ?v_166 ?v_21) ?v_155)) (or (or ?v_159 ?v_55) P11)) (or (or P34 ?v_104) ?v_171)) (or (or ?v_40 ?v_32) P35)) (or (or ?v_207 ?v_62) P6)) (or (or ?v_228 ?v_88) ?v_95)) (or (or ?v_23 ?v_144) ?v_230)) (or (or ?v_163 P42) ?v_54)) (or (or ?v_28 ?v_179) ?v_14)) (or (or ?v_232 P3) ?v_42)) (or (or P28 ?v_113) P8)) (or (or ?v_120 ?v_53) ?v_88)) (or (or ?v_137 ?v_177) ?v_57)) (or (or P21 ?v_109) ?v_202)) (or (or P45 ?v_98) ?v_131)) (or (or ?v_208 ?v_44) ?v_200)) (or (or ?v_83 ?v_87) ?v_58)) (or (or ?v_138 ?v_94) ?v_55)) (or (or ?v_255 P18) ?v_61)) (or (or ?v_243 ?v_144) ?v_83)) (or (or ?v_164 ?v_197) P27)) (or (or ?v_151 ?v_129) ?v_208)) (or (or P18 ?v_174) ?v_203)) (or (or ?v_238 P25) ?v_81)) (or (or P44 ?v_82) ?v_83)) (or (or P20 ?v_27) ?v_11)) (or (or ?v_40 ?v_175) ?v_237)) (or (or ?v_239 ?v_11) ?v_203)) (or (or ?v_236 ?v_80) ?v_13)) (or ?v_254 ?v_183)) (or (or ?v_250 ?v_163) ?v_27)) (or (or ?v_65 ?v_166) ?v_190)) (or (or ?v_255 P10) P41)) (or (or ?v_251 ?v_157) ?v_238)) (or (or ?v_20 P28) ?v_234)) (or (or ?v_55 P37) P26)) (or (or ?v_35 ?v_241) ?v_36)) (or (or P4 P43) ?v_104)) (or (or P29 ?v_248) ?v_249)) (or (or P5 ?v_126) ?v_35)) (or (or ?v_95 ?v_101) ?v_130)) (or (or ?v_256 ?v_41) ?v_175)) (or (or ?v_0 P22) ?v_122)) (or (or P4 P17) P3)) (or (or ?v_255 ?v_10) ?v_50)) (or (or ?v_118 ?v_245) ?v_220)) (or (or ?v_141 ?v_126) ?v_106)) (or (or ?v_236 ?v_11) ?v_188)) (or (or ?v_5 ?v_89) ?v_156)) (or (or ?v_165 ?v_183) ?v_228)) (or (or P24 ?v_175) P49)) (or (or ?v_207 ?v_61) ?v_42)) (or (or ?v_257 ?v_197) ?v_15)) (or (or ?v_159 ?v_141) P27)) (or (or ?v_176 ?v_166) P25)) (or (or ?v_159 ?v_177) ?v_13)) (or (or ?v_33 ?v_167) ?v_258)) (or (or ?v_259 ?v_219) ?v_117)) (or (or ?v_149 ?v_1) ?v_51)) (or (or ?v_221 ?v_71) ?v_188)) (or (or ?v_68 ?v_245) P10))))))))))))))))))))))))))))))))))))))))
(check-sat)
(exit)
